13
0 57 63 7 26 29 35 43 21 52 85 23 66 
57 0 64 93 75 37 88 95 90 54 4 76 50 
63 64 0 98 50 86 21 44 45 16 97 44 84 
7 93 98 0 41 16 69 41 13 94 80 58 38 
26 75 50 41 0 68 94 41 49 10 92 15 75 
29 37 86 16 68 0 3 63 16 83 23 38 11 
35 88 21 69 94 3 0 6 10 86 20 28 79 
43 95 44 41 41 63 6 0 1 47 39 7 70 
21 90 45 13 49 16 10 1 0 77 98 58 88 
52 54 16 94 10 83 86 47 77 0 2 82 64 
85 4 97 80 92 23 20 39 98 2 0 59 33 
23 76 44 58 15 38 28 7 58 82 59 0 54 
66 50 84 38 75 11 79 70 88 64 33 54 0 
